100
1000
132
132
132
132
132
130
130
130
130
130
129
129
128
128
128
128
128
127
126
126
125
125
125
125
124
123
123
123
122
122
122
122
121
121
121
121
120
120
119
118
118
117
116
115
115
115
114
114
114
114
113
113
113
113
112
112
112
111
111
110
110
109
109
108
108
107
107
107
107
106
105
103
103
103
102
102
101
101
99
98
98
98
98
96
96
96
95
95
95
94
94
93
93
92
91
91
91
91
90
90
